10
20
833880
0
0
30 140 72 11 14 12 1 83 11 8 53 240 11 86 22 12 18 48 32 41
1
0
61 197 35 81 72 53 2 300 108 111 19 8 15 30 21 19 27 61 167 13
2
0
50 39 134 92 6 132 12 1 33 8 63 6 138 41 1 10 0 11 57 45
3
0
12 5 99 79 14 3 0 9 42 28 22 4 263 30 59 12 15 56 65 29
4
0
373 94 6 15 3 132 119 67 76 61 8 8 3 53 82 47 96 85 6 3
5
0
6 2 95 12 38 29 3 30 13 40 53 32 98 28 7 64 41 125 127 39
6
0
6 120 10 5 33 14 155 44 14 44 3 23 33 7 58 100 50 101 6 23
7
0
38 32 31 15 44 59 14 138 25 2 102 43 52 9 19 18 5 66 13 30
8
0
79 22 37 23 103 30 103 0 131 70 20 12 6 10 188 109 5 104 46 7
9
0
65 1 56 23 21 11 24 56 16 1 13 14 91 11 29 47 25 46 8 5
